
  32    4
  10   10   10   10

   0   0   0   0   0   7 2 3 4 6 8 9 14 
   7   1   1   0   3   4 15 11 7 5 
   6   4   0   1   3   6 19 17 15 13 12 11 
  10   0   3   2   3   5 16 15 13 12 10 
   1   4   4   0   1   5 31 19 17 16 13 
   3   0   5   3   2   2 16 7 
  10   2   4   0   4   5 31 22 19 18 12 
   4   2   0   9   5   5 31 21 20 18 16 
   7   0   3   4   3   6 31 30 21 20 19 18 
   8   6   0   5   6   6 31 29 24 22 20 19 
   1   0   4   3   3   3 31 20 16 
   8   3   2   3   0   6 30 29 25 24 21 20 
   7   0   4   7   5   5 25 22 21 20 18 
   1   4   3   0   3   5 31 30 29 21 18 
   8   8   4   0   4   5 31 30 25 22 20 
   6   7   3   0   6   5 30 29 24 23 22 
   4   7   8   0   3   4 29 25 22 20 
   9   2   3   0   5   2 24 23 
  10   2   0   3   3   3 28 27 25 
   1   0   3   3   5   2 26 23 
  10   3   3   0   3   2 26 23 
   8   4   4   0   4   3 28 27 26 
   3   5   0   7   5   2 28 27 
   7   5   5   6   0   1 26 
   1   0   9   1   4   1 26 
   4   7   2   0   4   1 32
   5   3   4   0   2   1 32
   1   2   0   5   3   1 32
   3   2   8   0   6   1 32
   5   6   5   0  10   1 32
   1   3   2   2   0   1 32
   0   0   0   0   0   0 
